\ Model MDT
\ LP format - for model browsing. Use MPS format to capture full model detail.
Minimize
  - x1 - x2 + w12
Subject To
 c1: - 6 x1 + 8 x2 <= 3
 c2: 3 x1 - x2 <= 3
 c3: w12 - Delta_w12 - hat_x[1,-1] - 2 hat_x[2,-1] - 3 hat_x[3,-1]
   - 4 hat_x[4,-1] - 5 hat_x[5,-1] - 6 hat_x[6,-1] - 7 hat_x[7,-1]
   - 8 hat_x[8,-1] - 9 hat_x[9,-1] - hat_x[1,0] - 2 hat_x[2,0]
   - 3 hat_x[3,0] - 4 hat_x[4,0] - 5 hat_x[5,0] - 6 hat_x[6,0]
   - 7 hat_x[7,0] - 8 hat_x[8,0] - 9 hat_x[9,0] - hat_x[1,1] - 2 hat_x[2,1]
   - 3 hat_x[3,1] - 4 hat_x[4,1] - 5 hat_x[5,1] - 6 hat_x[6,1]
   - 7 hat_x[7,1] - 8 hat_x[8,1] - 9 hat_x[9,1] = 0
 c4: x1 - Delta_x1 - 0.1 z[1,-1] - 0.2 z[2,-1] - 0.3 z[3,-1] - 0.4 z[4,-1]
   - 0.5 z[5,-1] - 0.6 z[6,-1] - 0.7 z[7,-1] - 0.8 z[8,-1] - 0.9 z[9,-1]
   - 0.1 z[1,0] - 0.2 z[2,0] - 0.3 z[3,0] - 0.4 z[4,0] - 0.5 z[5,0]
   - 0.6 z[6,0] - 0.7 z[7,0] - 0.8 z[8,0] - 0.9 z[9,0] - 0.1 z[1,1]
   - 0.2 z[2,1] - 0.3 z[3,1] - 0.4 z[4,1] - 0.5 z[5,1] - 0.6 z[6,1]
   - 0.7 z[7,1] - 0.8 z[8,1] - 0.9 z[9,1] = 0
 c5[-1]: x2 - hat_x[0,-1] - hat_x[1,-1] - hat_x[2,-1] - hat_x[3,-1]
   - hat_x[4,-1] - hat_x[5,-1] - hat_x[6,-1] - hat_x[7,-1] - hat_x[8,-1]
   - hat_x[9,-1] = 0
 c5[0]: x2 - hat_x[0,0] - hat_x[1,0] - hat_x[2,0] - hat_x[3,0] - hat_x[4,0]
   - hat_x[5,0] - hat_x[6,0] - hat_x[7,0] - hat_x[8,0] - hat_x[9,0] = 0
 c5[1]: x2 - hat_x[0,1] - hat_x[1,1] - hat_x[2,1] - hat_x[3,1] - hat_x[4,1]
   - hat_x[5,1] - hat_x[6,1] - hat_x[7,1] - hat_x[8,1] - hat_x[9,1] = 0
 c6[0,-1]: hat_x[0,-1] - 1.5 z[0,-1] <= 0
 c6[1,-1]: hat_x[1,-1] - 1.5 z[1,-1] <= 0
 c6[2,-1]: hat_x[2,-1] - 1.5 z[2,-1] <= 0
 c6[3,-1]: hat_x[3,-1] - 1.5 z[3,-1] <= 0
 c6[4,-1]: hat_x[4,-1] - 1.5 z[4,-1] <= 0
 c6[5,-1]: hat_x[5,-1] - 1.5 z[5,-1] <= 0
 c6[6,-1]: hat_x[6,-1] - 1.5 z[6,-1] <= 0
 c6[7,-1]: hat_x[7,-1] - 1.5 z[7,-1] <= 0
 c6[8,-1]: hat_x[8,-1] - 1.5 z[8,-1] <= 0
 c6[9,-1]: hat_x[9,-1] - 1.5 z[9,-1] <= 0
 c6[0,0]: hat_x[0,0] - 1.5 z[0,0] <= 0
 c6[1,0]: hat_x[1,0] - 1.5 z[1,0] <= 0
 c6[2,0]: hat_x[2,0] - 1.5 z[2,0] <= 0
 c6[3,0]: hat_x[3,0] - 1.5 z[3,0] <= 0
 c6[4,0]: hat_x[4,0] - 1.5 z[4,0] <= 0
 c6[5,0]: hat_x[5,0] - 1.5 z[5,0] <= 0
 c6[6,0]: hat_x[6,0] - 1.5 z[6,0] <= 0
 c6[7,0]: hat_x[7,0] - 1.5 z[7,0] <= 0
 c6[8,0]: hat_x[8,0] - 1.5 z[8,0] <= 0
 c6[9,0]: hat_x[9,0] - 1.5 z[9,0] <= 0
 c6[0,1]: hat_x[0,1] - 1.5 z[0,1] <= 0
 c6[1,1]: hat_x[1,1] - 1.5 z[1,1] <= 0
 c6[2,1]: hat_x[2,1] - 1.5 z[2,1] <= 0
 c6[3,1]: hat_x[3,1] - 1.5 z[3,1] <= 0
 c6[4,1]: hat_x[4,1] - 1.5 z[4,1] <= 0
 c6[5,1]: hat_x[5,1] - 1.5 z[5,1] <= 0
 c6[6,1]: hat_x[6,1] - 1.5 z[6,1] <= 0
 c6[7,1]: hat_x[7,1] - 1.5 z[7,1] <= 0
 c6[8,1]: hat_x[8,1] - 1.5 z[8,1] <= 0
 c6[9,1]: hat_x[9,1] - 1.5 z[9,1] <= 0
 c7[-1]: z[0,-1] + z[1,-1] + z[2,-1] + z[3,-1] + z[4,-1] + z[5,-1]
   + z[6,-1] + z[7,-1] + z[8,-1] + z[9,-1] = 1
 c7[0]: z[0,0] + z[1,0] + z[2,0] + z[3,0] + z[4,0] + z[5,0] + z[6,0]
   + z[7,0] + z[8,0] + z[9,0] = 1
 c7[1]: z[0,1] + z[1,1] + z[2,1] + z[3,1] + z[4,1] + z[5,1] + z[6,1]
   + z[7,1] + z[8,1] + z[9,1] = 1
 c8a: Delta_w12 >= 0
 c8b: Delta_w12 - 1.5 Delta_x1 <= 0
 c9a: 0.1 x2 - Delta_w12 + 1.5 Delta_x1 <= 0.15
 c9b: - 0.1 x2 + Delta_w12 <= 0
 c10a: Delta_x1 >= 0
 c10b: Delta_x1 <= 0.15
Bounds
 x1 <= 1.5
 x2 <= 1.5
 Delta_w12 <= 2.25
 Delta_x1 <= 0.15
 hat_x[0,-1] <= 1.5
 hat_x[1,-1] <= 1.5
 hat_x[2,-1] <= 1.5
 hat_x[3,-1] <= 1.5
 hat_x[4,-1] <= 1.5
 hat_x[5,-1] <= 1.5
 hat_x[6,-1] <= 1.5
 hat_x[7,-1] <= 1.5
 hat_x[8,-1] <= 1.5
 hat_x[9,-1] <= 1.5
 hat_x[0,0] <= 1.5
 hat_x[1,0] <= 1.5
 hat_x[2,0] <= 1.5
 hat_x[3,0] <= 1.5
 hat_x[4,0] <= 1.5
 hat_x[5,0] <= 1.5
 hat_x[6,0] <= 1.5
 hat_x[7,0] <= 1.5
 hat_x[8,0] <= 1.5
 hat_x[9,0] <= 1.5
 hat_x[0,1] <= 1.5
 hat_x[1,1] <= 1.5
 hat_x[2,1] <= 1.5
 hat_x[3,1] <= 1.5
 hat_x[4,1] <= 1.5
 hat_x[5,1] <= 1.5
 hat_x[6,1] <= 1.5
 hat_x[7,1] <= 1.5
 hat_x[8,1] <= 1.5
 hat_x[9,1] <= 1.5
Binaries
 z[0,-1] z[1,-1] z[2,-1] z[3,-1] z[4,-1] z[5,-1] z[6,-1] z[7,-1] z[8,-1]
 z[9,-1] z[0,0] z[1,0] z[2,0] z[3,0] z[4,0] z[5,0] z[6,0] z[7,0] z[8,0]
 z[9,0] z[0,1] z[1,1] z[2,1] z[3,1] z[4,1] z[5,1] z[6,1] z[7,1] z[8,1]
 z[9,1]
End
